(declare-const X String)
; Host\u{3A}\sHello\u{2E}.*forum=
(assert (not (str.in_re X (re.++ (str.to_re "Host:") (re.union (str.to_re " ") (str.to_re "\u{9}") (str.to_re "\u{a}") (str.to_re "\u{c}") (str.to_re "\u{d}")) (str.to_re "Hello.") (re.* re.allchar) (str.to_re "forum=\u{a}")))))
(check-sat)
